# Solution for model r5_t27_m7_3 Batch Number: 4
# Finished Task: 26 / 27
# Makespan: 523.0, Total Distance: 519.0, Total Time: 1.8197
# R O S F Batch
0 0 28 0.0 0.0 -1
1 1 9 0.0 0.0 -1
2 2 16 0.0 0.0 -1
3 3 22 0.0 0.0 -1
4 4 19 0.0 0.0 -1
5 1 24 211.0 231.0 0
6 3 -1 310.0 341.0 0
7 1 14 118.0 145.0 0
8 0 20 336.0 375.0 2
9 1 7 45.0 81.0 0
10 2 26 275.0 311.0 0
11 1 -1 486.0 523.0 3
12 1 17 324.0 353.0 2
13 0 8 285.0 308.0 0
14 1 5 175.0 211.0 0
15 2 29 431.0 457.0 3
16 2 21 98.0 118.0 0
17 1 23 375.0 408.0 2
18 -1 -1 -1.0 -1.0 3
19 4 30 61.0 92.0 0
20 0 -1 473.0 502.0 3
21 2 10 137.0 176.0 0
22 3 6 113.0 137.0 0
23 1 11 430.0 465.0 3
24 1 12 255.0 290.0 2
25 2 15 387.0 417.0 2
26 2 25 335.0 370.0 1
27 4 -1 406.0 442.0 3
28 0 13 242.0 275.0 0
29 2 -1 487.0 521.0 3
30 4 31 102.0 135.0 0
31 4 27 353.0 388.0 2
